sat
(
  (define-fun StorageProv4 () Int
    2000)
  (define-fun ProcProv4 () Int
    2)
  (define-fun PriceProv2 () Int
    252)
  (define-fun C1_VM2 () Int
    0)
  (define-fun C1_VM4 () Int
    0)
  (define-fun MemProv1 () Int
    7500)
  (define-fun C5_VM2 () Int
    0)
  (define-fun PriceProv4 () Int
    128)
  (define-fun C3_VM3 () Int
    0)
  (define-fun MemProv4 () Int
    3750)
  (define-fun C5_VM4 () Int
    0)
  (define-fun StorageProv2 () Int
    2000)
  (define-fun C2_VM1 () Int
    0)
  (define-fun MemProv2 () Int
    7500)
  (define-fun C5_VM3 () Int
    0)
  (define-fun MemProv3 () Int
    3750)
  (define-fun VM4Type () Int
    37)
  (define-fun ProcProv5 () Int
    4)
  (define-fun ProcProv3 () Int
    2)
  (define-fun MemProv5 () Int
    7500)
  (define-fun VM5Type () Int
    27)
  (define-fun C3_VM5 () Int
    0)
  (define-fun C4_VM2 () Int
    0)
  (define-fun C4_VM5 () Int
    0)
  (define-fun C2_VM3 () Int
    0)
  (define-fun C2_VM5 () Int
    0)
  (define-fun PriceProv5 () Int
    252)
  (define-fun PriceProv1 () Int
    252)
  (define-fun C3_VM4 () Int
    0)
  (define-fun C5_VM5 () Int
    1)
  (define-fun C4_VM4 () Int
    0)
  (define-fun C4_VM3 () Int
    1)
  (define-fun VM3Type () Int
    37)
  (define-fun C1_VM5 () Int
    0)
  (define-fun C2_VM4 () Int
    1)
  (define-fun StorageProv3 () Int
    2000)
  (define-fun C1_VM3 () Int
    0)
  (define-fun StorageProv1 () Int
    2000)
  (define-fun ProcProv1 () Int
    4)
  (define-fun C4_VM1 () Int
    0)
  (define-fun ProcProv2 () Int
    4)
  (define-fun StorageProv5 () Int
    2000)
  (define-fun C3_VM2 () Int
    1)
  (define-fun VM2Type () Int
    26)
  (define-fun PriceProv3 () Int
    128)
  (define-fun C3_VM1 () Int
    0)
  (define-fun VM1Type () Int
    26)
  (define-fun C2_VM2 () Int
    0)
  (define-fun C5_VM1 () Int
    0)
  (define-fun C1_VM1 () Int
    1)
)
(objectives
 ((+ 0 PriceProv1 PriceProv2 PriceProv3 PriceProv4 PriceProv5) 1012)
)
(:added-eqs                   97253
 :arith-eq-adapter            6753
 :arith-bound-propagations-lp 9975
 :arith-conflicts             104
 :arith-diseq                 137856
 :arith-fixed-eqs             1637
 :arith-lower                 162826
 :arith-make-feasible         14592
 :arith-max-columns           134
 :arith-max-rows              17
 :arith-upper                 127471
 :binary-propagations         667558
 :conflicts                   2969
 :decisions                   43624
 :del-clause                  19154
 :final-checks                101
 :max-memory                  44.42
 :memory                      44.42
 :minimized-lits              34078
 :mk-bool-var                 15038
 :mk-clause                   20498
 :mk-clause-binary            3648
 :num-allocs                  46199514
 :num-checks                  78
 :pb-conflicts                1097
 :pb-predicates               384
 :pb-propagations             1715
 :pb-resolves                 1094
 :propagations                1118660
 :restarts                    22
 :rlimit-count                5825746
 :solve-eqs-elim-vars         2
 :solve-eqs-steps             16
 :time                        0.30
 :total-time                  0.30)
